NAME
* Written by MOSEK version 7.0.0.94
OBJSENSE
    MIN
ROWS
 N  OBJ
 E  C1
COLUMNS
    X1        OBJ       8e+0
    X1        C1        1e+0
    X2        OBJ       1e+0
    X2        C1        -1e+0
    X3        OBJ       1e+0
    X3        C1        2e+0
RHS
    rhs       C1        3e+0
RANGES
CSECTION      K1        0              RQUAD
    X1
    X2
    X3
ENDATA
